3069538
123,143,67,7,122,41,66,190,222,128,158,180,141,202,70,157,140,178,230,120,212,115,61,113,181,59,11,169,108,89,16,63,209,13,164,174,81,78,37,132,191,208,97,136,226,148,2,82,43,162,195,124,95,176,194,4,21,90,38,10,189,98,71,72,51,204,46,134,220,93,40,55,103,187,146,203,44,57,69,33,159,75,96,35,50,27,130,36,117,192,101,133,112,155,215,28,116,34,161,205,196,68,30,107,87,94,102,31,39,74,207,42,173,126,58,79,118,144,80,200,153,88,228,150,170,142,171,186,109,224,217,104,15,127,177,147,185,23,156,225,188,214,137,184,20,62,179,151,221,52,17,73,168,167,26,5,229,76,9,45,48,172,84,86,99,54,56,53,216,92,24,77,121,114,160,199,149,47,85,32,163,201,49,1,210,183,60,135,110,165,182,223,25,166,3,218,211,64,125,119,213,106,219,18,175,105,100,227,131,206,138,19,145,198,12,129,154,91,197,193,6,139,29,65,22,152,83,14,8,111